\ Model Order picking Schedule
\ LP format - for model browsing. Use MPS format to capture full model detail.
Minimize
  0.15 c[0,3] + 0.15 c[1,3] + 0.15 c[2,3] + 0.15 c[3,3] + 0.15 c[4,3]
   + 0.15 c[5,3] + 0.15 c[6,3] + 0.15 c[7,3] + 0.15 c[8,3] + 0.15 c[9,3]
   + Z + 20.325 Constant
Subject To
 s.t.4[0]: y[0,0] + y[0,1] + y[0,2] + y[0,3] + y[0,4] + y[0,5] + y[0,6]
   + y[0,7] + y[0,8] + y[0,9] = 1
 s.t.4[1]: y[1,0] + y[1,1] + y[1,2] + y[1,3] + y[1,4] + y[1,5] + y[1,6]
   + y[1,7] + y[1,8] + y[1,9] = 1
 s.t.4[2]: y[2,0] + y[2,1] + y[2,2] + y[2,3] + y[2,4] + y[2,5] + y[2,6]
   + y[2,7] + y[2,8] + y[2,9] = 1
 s.t.4[3]: y[3,0] + y[3,1] + y[3,2] + y[3,3] + y[3,4] + y[3,5] + y[3,6]
   + y[3,7] + y[3,8] + y[3,9] = 1
 s.t.4[4]: y[4,0] + y[4,1] + y[4,2] + y[4,3] + y[4,4] + y[4,5] + y[4,6]
   + y[4,7] + y[4,8] + y[4,9] = 1
 s.t.4[5]: y[5,0] + y[5,1] + y[5,2] + y[5,3] + y[5,4] + y[5,5] + y[5,6]
   + y[5,7] + y[5,8] + y[5,9] = 1
 s.t.4[6]: y[6,0] + y[6,1] + y[6,2] + y[6,3] + y[6,4] + y[6,5] + y[6,6]
   + y[6,7] + y[6,8] + y[6,9] = 1
 s.t.4[7]: y[7,0] + y[7,1] + y[7,2] + y[7,3] + y[7,4] + y[7,5] + y[7,6]
   + y[7,7] + y[7,8] + y[7,9] = 1
 s.t.4[8]: y[8,0] + y[8,1] + y[8,2] + y[8,3] + y[8,4] + y[8,5] + y[8,6]
   + y[8,7] + y[8,8] + y[8,9] = 1
 s.t.4[9]: y[9,0] + y[9,1] + y[9,2] + y[9,3] + y[9,4] + y[9,5] + y[9,6]
   + y[9,7] + y[9,8] + y[9,9] = 1
 s.t.5[0]: y[0,0] + y[1,0] + y[2,0] + y[3,0] + y[4,0] + y[5,0] + y[6,0]
   + y[7,0] + y[8,0] + y[9,0] = 1
 s.t.5[1]: y[0,1] + y[1,1] + y[2,1] + y[3,1] + y[4,1] + y[5,1] + y[6,1]
   + y[7,1] + y[8,1] + y[9,1] = 1
 s.t.5[2]: y[0,2] + y[1,2] + y[2,2] + y[3,2] + y[4,2] + y[5,2] + y[6,2]
   + y[7,2] + y[8,2] + y[9,2] = 1
 s.t.5[3]: y[0,3] + y[1,3] + y[2,3] + y[3,3] + y[4,3] + y[5,3] + y[6,3]
   + y[7,3] + y[8,3] + y[9,3] = 1
 s.t.5[4]: y[0,4] + y[1,4] + y[2,4] + y[3,4] + y[4,4] + y[5,4] + y[6,4]
   + y[7,4] + y[8,4] + y[9,4] = 1
 s.t.5[5]: y[0,5] + y[1,5] + y[2,5] + y[3,5] + y[4,5] + y[5,5] + y[6,5]
   + y[7,5] + y[8,5] + y[9,5] = 1
 s.t.5[6]: y[0,6] + y[1,6] + y[2,6] + y[3,6] + y[4,6] + y[5,6] + y[6,6]
   + y[7,6] + y[8,6] + y[9,6] = 1
 s.t.5[7]: y[0,7] + y[1,7] + y[2,7] + y[3,7] + y[4,7] + y[5,7] + y[6,7]
   + y[7,7] + y[8,7] + y[9,7] = 1
 s.t.5[8]: y[0,8] + y[1,8] + y[2,8] + y[3,8] + y[4,8] + y[5,8] + y[6,8]
   + y[7,8] + y[8,8] + y[9,8] = 1
 s.t.5[9]: y[0,9] + y[1,9] + y[2,9] + y[3,9] + y[4,9] + y[5,9] + y[6,9]
   + y[7,9] + y[8,9] + y[9,9] = 1
 s.t.6: - 7 y[0,0] - 4 y[1,0] - 9 y[2,0] - 11 y[3,0] - 12 y[4,0] - 4 y[5,0]
   - 6 y[6,0] - 7 y[7,0] - 8 y[8,0] - 11 y[9,0] + c[0,0] >= 0
 R21: - 7 y[0,0] - 9 y[1,0] - 7 y[2,0] - 11 y[3,0] - 7 y[4,0] - 9 y[5,0]
   - 12 y[6,0] - 7 y[7,0] - 9 y[8,0] - 2 y[9,0] - c[0,0] + c[0,1] >= 8
 R22: - 8 y[0,0] - 7 y[1,0] - 7 y[2,0] - 7 y[3,0] - 10 y[4,0] - 9 y[5,0]
   - 8 y[6,0] - 8 y[7,0] - 8 y[8,0] - 11 y[9,0] - c[0,1] + c[0,2] >= 8
 R23: - 8 y[0,0] - 8 y[2,0] - 9 y[3,0] - 8 y[4,0] - 5 y[5,0] - 8 y[6,0]
   - 8 y[7,0] - 10 y[8,0] - 6 y[9,0] - c[0,2] + c[0,3] >= 8
 R24: - 7 y[0,1] - 4 y[1,1] - 9 y[2,1] - 11 y[3,1] - 12 y[4,1] - 4 y[5,1]
   - 6 y[6,1] - 7 y[7,1] - 8 y[8,1] - 11 y[9,1] - c[0,0] + c[1,0] >= 0
 R25: - 7 y[0,2] - 4 y[1,2] - 9 y[2,2] - 11 y[3,2] - 12 y[4,2] - 4 y[5,2]
   - 6 y[6,2] - 7 y[7,2] - 8 y[8,2] - 11 y[9,2] - c[1,0] + c[2,0] >= 0
 R26: - 7 y[0,3] - 4 y[1,3] - 9 y[2,3] - 11 y[3,3] - 12 y[4,3] - 4 y[5,3]
   - 6 y[6,3] - 7 y[7,3] - 8 y[8,3] - 11 y[9,3] - c[2,0] + c[3,0] >= 0
 R27: - 7 y[0,4] - 4 y[1,4] - 9 y[2,4] - 11 y[3,4] - 12 y[4,4] - 4 y[5,4]
   - 6 y[6,4] - 7 y[7,4] - 8 y[8,4] - 11 y[9,4] - c[3,0] + c[4,0] >= 0
 R28: - 7 y[0,5] - 4 y[1,5] - 9 y[2,5] - 11 y[3,5] - 12 y[4,5] - 4 y[5,5]
   - 6 y[6,5] - 7 y[7,5] - 8 y[8,5] - 11 y[9,5] - c[4,0] + c[5,0] >= 0
 R29: - 7 y[0,6] - 4 y[1,6] - 9 y[2,6] - 11 y[3,6] - 12 y[4,6] - 4 y[5,6]
   - 6 y[6,6] - 7 y[7,6] - 8 y[8,6] - 11 y[9,6] - c[5,0] + c[6,0] >= 0
 R30: - 7 y[0,7] - 4 y[1,7] - 9 y[2,7] - 11 y[3,7] - 12 y[4,7] - 4 y[5,7]
   - 6 y[6,7] - 7 y[7,7] - 8 y[8,7] - 11 y[9,7] - c[6,0] + c[7,0] >= 0
 R31: - 7 y[0,8] - 4 y[1,8] - 9 y[2,8] - 11 y[3,8] - 12 y[4,8] - 4 y[5,8]
   - 6 y[6,8] - 7 y[7,8] - 8 y[8,8] - 11 y[9,8] - c[7,0] + c[8,0] >= 0
 R32: - 7 y[0,9] - 4 y[1,9] - 9 y[2,9] - 11 y[3,9] - 12 y[4,9] - 4 y[5,9]
   - 6 y[6,9] - 7 y[7,9] - 8 y[8,9] - 11 y[9,9] - c[8,0] + c[9,0] >= 0
 R33: - 7 y[0,1] - 9 y[1,1] - 7 y[2,1] - 11 y[3,1] - 7 y[4,1] - 9 y[5,1]
   - 12 y[6,1] - 7 y[7,1] - 9 y[8,1] - 2 y[9,1] - c[0,1] + c[1,1] >= 0
 R34: - 8 y[0,1] - 7 y[1,1] - 7 y[2,1] - 7 y[3,1] - 10 y[4,1] - 9 y[5,1]
   - 8 y[6,1] - 8 y[7,1] - 8 y[8,1] - 11 y[9,1] - c[0,2] + c[1,2] >= 0
 R35: - 8 y[0,1] - 8 y[2,1] - 9 y[3,1] - 8 y[4,1] - 5 y[5,1] - 8 y[6,1]
   - 8 y[7,1] - 10 y[8,1] - 6 y[9,1] - c[0,3] + c[1,3] >= 0
 R36: - 7 y[0,2] - 9 y[1,2] - 7 y[2,2] - 11 y[3,2] - 7 y[4,2] - 9 y[5,2]
   - 12 y[6,2] - 7 y[7,2] - 9 y[8,2] - 2 y[9,2] - c[1,1] + c[2,1] >= 0
 R37: - 8 y[0,2] - 7 y[1,2] - 7 y[2,2] - 7 y[3,2] - 10 y[4,2] - 9 y[5,2]
   - 8 y[6,2] - 8 y[7,2] - 8 y[8,2] - 11 y[9,2] - c[1,2] + c[2,2] >= 0
 R38: - 8 y[0,2] - 8 y[2,2] - 9 y[3,2] - 8 y[4,2] - 5 y[5,2] - 8 y[6,2]
   - 8 y[7,2] - 10 y[8,2] - 6 y[9,2] - c[1,3] + c[2,3] >= 0
 R39: - 7 y[0,3] - 9 y[1,3] - 7 y[2,3] - 11 y[3,3] - 7 y[4,3] - 9 y[5,3]
   - 12 y[6,3] - 7 y[7,3] - 9 y[8,3] - 2 y[9,3] - c[2,1] + c[3,1] >= 0
 R40: - 8 y[0,3] - 7 y[1,3] - 7 y[2,3] - 7 y[3,3] - 10 y[4,3] - 9 y[5,3]
   - 8 y[6,3] - 8 y[7,3] - 8 y[8,3] - 11 y[9,3] - c[2,2] + c[3,2] >= 0
 R41: - 8 y[0,3] - 8 y[2,3] - 9 y[3,3] - 8 y[4,3] - 5 y[5,3] - 8 y[6,3]
   - 8 y[7,3] - 10 y[8,3] - 6 y[9,3] - c[2,3] + c[3,3] >= 0
 R42: - 7 y[0,4] - 9 y[1,4] - 7 y[2,4] - 11 y[3,4] - 7 y[4,4] - 9 y[5,4]
   - 12 y[6,4] - 7 y[7,4] - 9 y[8,4] - 2 y[9,4] - c[3,1] + c[4,1] >= 0
 R43: - 8 y[0,4] - 7 y[1,4] - 7 y[2,4] - 7 y[3,4] - 10 y[4,4] - 9 y[5,4]
   - 8 y[6,4] - 8 y[7,4] - 8 y[8,4] - 11 y[9,4] - c[3,2] + c[4,2] >= 0
 R44: - 8 y[0,4] - 8 y[2,4] - 9 y[3,4] - 8 y[4,4] - 5 y[5,4] - 8 y[6,4]
   - 8 y[7,4] - 10 y[8,4] - 6 y[9,4] - c[3,3] + c[4,3] >= 0
 R45: - 7 y[0,5] - 9 y[1,5] - 7 y[2,5] - 11 y[3,5] - 7 y[4,5] - 9 y[5,5]
   - 12 y[6,5] - 7 y[7,5] - 9 y[8,5] - 2 y[9,5] - c[4,1] + c[5,1] >= 0
 R46: - 8 y[0,5] - 7 y[1,5] - 7 y[2,5] - 7 y[3,5] - 10 y[4,5] - 9 y[5,5]
   - 8 y[6,5] - 8 y[7,5] - 8 y[8,5] - 11 y[9,5] - c[4,2] + c[5,2] >= 0
 R47: - 8 y[0,5] - 8 y[2,5] - 9 y[3,5] - 8 y[4,5] - 5 y[5,5] - 8 y[6,5]
   - 8 y[7,5] - 10 y[8,5] - 6 y[9,5] - c[4,3] + c[5,3] >= 0
 R48: - 7 y[0,6] - 9 y[1,6] - 7 y[2,6] - 11 y[3,6] - 7 y[4,6] - 9 y[5,6]
   - 12 y[6,6] - 7 y[7,6] - 9 y[8,6] - 2 y[9,6] - c[5,1] + c[6,1] >= 0
 R49: - 8 y[0,6] - 7 y[1,6] - 7 y[2,6] - 7 y[3,6] - 10 y[4,6] - 9 y[5,6]
   - 8 y[6,6] - 8 y[7,6] - 8 y[8,6] - 11 y[9,6] - c[5,2] + c[6,2] >= 0
 R50: - 8 y[0,6] - 8 y[2,6] - 9 y[3,6] - 8 y[4,6] - 5 y[5,6] - 8 y[6,6]
   - 8 y[7,6] - 10 y[8,6] - 6 y[9,6] - c[5,3] + c[6,3] >= 0
 R51: - 7 y[0,7] - 9 y[1,7] - 7 y[2,7] - 11 y[3,7] - 7 y[4,7] - 9 y[5,7]
   - 12 y[6,7] - 7 y[7,7] - 9 y[8,7] - 2 y[9,7] - c[6,1] + c[7,1] >= 0
 R52: - 8 y[0,7] - 7 y[1,7] - 7 y[2,7] - 7 y[3,7] - 10 y[4,7] - 9 y[5,7]
   - 8 y[6,7] - 8 y[7,7] - 8 y[8,7] - 11 y[9,7] - c[6,2] + c[7,2] >= 0
 R53: - 8 y[0,7] - 8 y[2,7] - 9 y[3,7] - 8 y[4,7] - 5 y[5,7] - 8 y[6,7]
   - 8 y[7,7] - 10 y[8,7] - 6 y[9,7] - c[6,3] + c[7,3] >= 0
 R54: - 7 y[0,8] - 9 y[1,8] - 7 y[2,8] - 11 y[3,8] - 7 y[4,8] - 9 y[5,8]
   - 12 y[6,8] - 7 y[7,8] - 9 y[8,8] - 2 y[9,8] - c[7,1] + c[8,1] >= 0
 R55: - 8 y[0,8] - 7 y[1,8] - 7 y[2,8] - 7 y[3,8] - 10 y[4,8] - 9 y[5,8]
   - 8 y[6,8] - 8 y[7,8] - 8 y[8,8] - 11 y[9,8] - c[7,2] + c[8,2] >= 0
 R56: - 8 y[0,8] - 8 y[2,8] - 9 y[3,8] - 8 y[4,8] - 5 y[5,8] - 8 y[6,8]
   - 8 y[7,8] - 10 y[8,8] - 6 y[9,8] - c[7,3] + c[8,3] >= 0
 R57: - 7 y[0,9] - 9 y[1,9] - 7 y[2,9] - 11 y[3,9] - 7 y[4,9] - 9 y[5,9]
   - 12 y[6,9] - 7 y[7,9] - 9 y[8,9] - 2 y[9,9] - c[8,1] + c[9,1] >= 0
 R58: - 8 y[0,9] - 7 y[1,9] - 7 y[2,9] - 7 y[3,9] - 10 y[4,9] - 9 y[5,9]
   - 8 y[6,9] - 8 y[7,9] - 8 y[8,9] - 11 y[9,9] - c[8,2] + c[9,2] >= 0
 R59: - 8 y[0,9] - 8 y[2,9] - 9 y[3,9] - 8 y[4,9] - 5 y[5,9] - 8 y[6,9]
   - 8 y[7,9] - 10 y[8,9] - 6 y[9,9] - c[8,3] + c[9,3] >= 0
 R60: - 7 y[0,1] - 9 y[1,1] - 7 y[2,1] - 11 y[3,1] - 7 y[4,1] - 9 y[5,1]
   - 12 y[6,1] - 7 y[7,1] - 9 y[8,1] - 2 y[9,1] - c[1,0] + c[1,1] >= 8
 R61: - 8 y[0,1] - 7 y[1,1] - 7 y[2,1] - 7 y[3,1] - 10 y[4,1] - 9 y[5,1]
   - 8 y[6,1] - 8 y[7,1] - 8 y[8,1] - 11 y[9,1] - c[1,1] + c[1,2] >= 8
 R62: - 8 y[0,1] - 8 y[2,1] - 9 y[3,1] - 8 y[4,1] - 5 y[5,1] - 8 y[6,1]
   - 8 y[7,1] - 10 y[8,1] - 6 y[9,1] - c[1,2] + c[1,3] >= 8
 R63: - 7 y[0,2] - 9 y[1,2] - 7 y[2,2] - 11 y[3,2] - 7 y[4,2] - 9 y[5,2]
   - 12 y[6,2] - 7 y[7,2] - 9 y[8,2] - 2 y[9,2] - c[2,0] + c[2,1] >= 8
 R64: - 8 y[0,2] - 7 y[1,2] - 7 y[2,2] - 7 y[3,2] - 10 y[4,2] - 9 y[5,2]
   - 8 y[6,2] - 8 y[7,2] - 8 y[8,2] - 11 y[9,2] - c[2,1] + c[2,2] >= 8
 R65: - 8 y[0,2] - 8 y[2,2] - 9 y[3,2] - 8 y[4,2] - 5 y[5,2] - 8 y[6,2]
   - 8 y[7,2] - 10 y[8,2] - 6 y[9,2] - c[2,2] + c[2,3] >= 8
 R66: - 7 y[0,3] - 9 y[1,3] - 7 y[2,3] - 11 y[3,3] - 7 y[4,3] - 9 y[5,3]
   - 12 y[6,3] - 7 y[7,3] - 9 y[8,3] - 2 y[9,3] - c[3,0] + c[3,1] >= 8
 R67: - 8 y[0,3] - 7 y[1,3] - 7 y[2,3] - 7 y[3,3] - 10 y[4,3] - 9 y[5,3]
   - 8 y[6,3] - 8 y[7,3] - 8 y[8,3] - 11 y[9,3] - c[3,1] + c[3,2] >= 8
 R68: - 8 y[0,3] - 8 y[2,3] - 9 y[3,3] - 8 y[4,3] - 5 y[5,3] - 8 y[6,3]
   - 8 y[7,3] - 10 y[8,3] - 6 y[9,3] - c[3,2] + c[3,3] >= 8
 R69: - 7 y[0,4] - 9 y[1,4] - 7 y[2,4] - 11 y[3,4] - 7 y[4,4] - 9 y[5,4]
   - 12 y[6,4] - 7 y[7,4] - 9 y[8,4] - 2 y[9,4] - c[4,0] + c[4,1] >= 8
 R70: - 8 y[0,4] - 7 y[1,4] - 7 y[2,4] - 7 y[3,4] - 10 y[4,4] - 9 y[5,4]
   - 8 y[6,4] - 8 y[7,4] - 8 y[8,4] - 11 y[9,4] - c[4,1] + c[4,2] >= 8
 R71: - 8 y[0,4] - 8 y[2,4] - 9 y[3,4] - 8 y[4,4] - 5 y[5,4] - 8 y[6,4]
   - 8 y[7,4] - 10 y[8,4] - 6 y[9,4] - c[4,2] + c[4,3] >= 8
 R72: - 7 y[0,5] - 9 y[1,5] - 7 y[2,5] - 11 y[3,5] - 7 y[4,5] - 9 y[5,5]
   - 12 y[6,5] - 7 y[7,5] - 9 y[8,5] - 2 y[9,5] - c[5,0] + c[5,1] >= 8
 R73: - 8 y[0,5] - 7 y[1,5] - 7 y[2,5] - 7 y[3,5] - 10 y[4,5] - 9 y[5,5]
   - 8 y[6,5] - 8 y[7,5] - 8 y[8,5] - 11 y[9,5] - c[5,1] + c[5,2] >= 8
 R74: - 8 y[0,5] - 8 y[2,5] - 9 y[3,5] - 8 y[4,5] - 5 y[5,5] - 8 y[6,5]
   - 8 y[7,5] - 10 y[8,5] - 6 y[9,5] - c[5,2] + c[5,3] >= 8
 R75: - 7 y[0,6] - 9 y[1,6] - 7 y[2,6] - 11 y[3,6] - 7 y[4,6] - 9 y[5,6]
   - 12 y[6,6] - 7 y[7,6] - 9 y[8,6] - 2 y[9,6] - c[6,0] + c[6,1] >= 8
 R76: - 8 y[0,6] - 7 y[1,6] - 7 y[2,6] - 7 y[3,6] - 10 y[4,6] - 9 y[5,6]
   - 8 y[6,6] - 8 y[7,6] - 8 y[8,6] - 11 y[9,6] - c[6,1] + c[6,2] >= 8
 R77: - 8 y[0,6] - 8 y[2,6] - 9 y[3,6] - 8 y[4,6] - 5 y[5,6] - 8 y[6,6]
   - 8 y[7,6] - 10 y[8,6] - 6 y[9,6] - c[6,2] + c[6,3] >= 8
 R78: - 7 y[0,7] - 9 y[1,7] - 7 y[2,7] - 11 y[3,7] - 7 y[4,7] - 9 y[5,7]
   - 12 y[6,7] - 7 y[7,7] - 9 y[8,7] - 2 y[9,7] - c[7,0] + c[7,1] >= 8
 R79: - 8 y[0,7] - 7 y[1,7] - 7 y[2,7] - 7 y[3,7] - 10 y[4,7] - 9 y[5,7]
   - 8 y[6,7] - 8 y[7,7] - 8 y[8,7] - 11 y[9,7] - c[7,1] + c[7,2] >= 8
 R80: - 8 y[0,7] - 8 y[2,7] - 9 y[3,7] - 8 y[4,7] - 5 y[5,7] - 8 y[6,7]
   - 8 y[7,7] - 10 y[8,7] - 6 y[9,7] - c[7,2] + c[7,3] >= 8
 R81: - 7 y[0,8] - 9 y[1,8] - 7 y[2,8] - 11 y[3,8] - 7 y[4,8] - 9 y[5,8]
   - 12 y[6,8] - 7 y[7,8] - 9 y[8,8] - 2 y[9,8] - c[8,0] + c[8,1] >= 8
 R82: - 8 y[0,8] - 7 y[1,8] - 7 y[2,8] - 7 y[3,8] - 10 y[4,8] - 9 y[5,8]
   - 8 y[6,8] - 8 y[7,8] - 8 y[8,8] - 11 y[9,8] - c[8,1] + c[8,2] >= 8
 R83: - 8 y[0,8] - 8 y[2,8] - 9 y[3,8] - 8 y[4,8] - 5 y[5,8] - 8 y[6,8]
   - 8 y[7,8] - 10 y[8,8] - 6 y[9,8] - c[8,2] + c[8,3] >= 8
 R84: - 7 y[0,9] - 9 y[1,9] - 7 y[2,9] - 11 y[3,9] - 7 y[4,9] - 9 y[5,9]
   - 12 y[6,9] - 7 y[7,9] - 9 y[8,9] - 2 y[9,9] - c[9,0] + c[9,1] >= 8
 R85: - 8 y[0,9] - 7 y[1,9] - 7 y[2,9] - 7 y[3,9] - 10 y[4,9] - 9 y[5,9]
   - 8 y[6,9] - 8 y[7,9] - 8 y[8,9] - 11 y[9,9] - c[9,1] + c[9,2] >= 8
 R86: - 8 y[0,9] - 8 y[2,9] - 9 y[3,9] - 8 y[4,9] - 5 y[5,9] - 8 y[6,9]
   - 8 y[7,9] - 10 y[8,9] - 6 y[9,9] - c[9,2] + c[9,3] >= 8
 s.t.22[0,0]: c[0,0] >= 0
 s.t.22[0,1]: c[0,1] >= 0
 s.t.22[0,2]: c[0,2] >= 0
 s.t.22[0,3]: c[0,3] >= 0
 s.t.22[1,0]: c[1,0] >= 0
 s.t.22[1,1]: c[1,1] >= 0
 s.t.22[1,2]: c[1,2] >= 0
 s.t.22[1,3]: c[1,3] >= 0
 s.t.22[2,0]: c[2,0] >= 0
 s.t.22[2,1]: c[2,1] >= 0
 s.t.22[2,2]: c[2,2] >= 0
 s.t.22[2,3]: c[2,3] >= 0
 s.t.22[3,0]: c[3,0] >= 0
 s.t.22[3,1]: c[3,1] >= 0
 s.t.22[3,2]: c[3,2] >= 0
 s.t.22[3,3]: c[3,3] >= 0
 s.t.22[4,0]: c[4,0] >= 0
 s.t.22[4,1]: c[4,1] >= 0
 s.t.22[4,2]: c[4,2] >= 0
 s.t.22[4,3]: c[4,3] >= 0
 s.t.22[5,0]: c[5,0] >= 0
 s.t.22[5,1]: c[5,1] >= 0
 s.t.22[5,2]: c[5,2] >= 0
 s.t.22[5,3]: c[5,3] >= 0
 s.t.22[6,0]: c[6,0] >= 0
 s.t.22[6,1]: c[6,1] >= 0
 s.t.22[6,2]: c[6,2] >= 0
 s.t.22[6,3]: c[6,3] >= 0
 s.t.22[7,0]: c[7,0] >= 0
 s.t.22[7,1]: c[7,1] >= 0
 s.t.22[7,2]: c[7,2] >= 0
 s.t.22[7,3]: c[7,3] >= 0
 s.t.22[8,0]: c[8,0] >= 0
 s.t.22[8,1]: c[8,1] >= 0
 s.t.22[8,2]: c[8,2] >= 0
 s.t.22[8,3]: c[8,3] >= 0
 s.t.22[9,0]: c[9,0] >= 0
 s.t.22[9,1]: c[9,1] >= 0
 s.t.22[9,2]: c[9,2] >= 0
 s.t.22[9,3]: c[9,3] >= 0
 s.t.24[0]: z[0] >= 0
 s.t.24[1]: z[1] >= 0
 s.t.24[2]: z[2] >= 0
 s.t.24[3]: z[3] >= 0
 s.t.24[4]: z[4] >= 0
 s.t.24[5]: z[5] >= 0
 s.t.24[6]: z[6] >= 0
 s.t.24[7]: z[7] >= 0
 s.t.24[8]: z[8] >= 0
 s.t.24[9]: z[9] >= 0
 s.t.26: Z - 0.2 z[0] - 0.2 z[1] - 0.2 z[2] - 0.2 z[3] - 0.2 z[4]
   - 0.2 z[5] - 0.2 z[6] - 0.2 z[7] - 0.2 z[8] - 0.2 z[9] = 0
 s.t.25[0]: 25.3 y[0,0] + 49.7 y[1,0] + 29.3 y[2,0] + 29.2 y[3,0]
   + 29.2 y[4,0] + 23.2 y[5,0] + 35.2 y[6,0] + 41.3 y[7,0] + 27.3 y[8,0]
   + 29.2 y[9,0] + z[0] + [ - 0.2 y[0,0] * c[0,3] - 0.2 y[1,0] * c[0,3]
   - 0.2 y[2,0] * c[0,3] - 0.2 y[3,0] * c[0,3] - 0.2 y[4,0] * c[0,3]
   - 0.2 y[5,0] * c[0,3] - 0.2 y[6,0] * c[0,3] - 0.2 y[7,0] * c[0,3]
   - 0.2 y[8,0] * c[0,3] - 0.2 y[9,0] * c[0,3] ] >= 0
 s.t.25[1]: 25.3 y[0,1] + 49.7 y[1,1] + 29.3 y[2,1] + 29.2 y[3,1]
   + 29.2 y[4,1] + 23.2 y[5,1] + 35.2 y[6,1] + 41.3 y[7,1] + 27.3 y[8,1]
   + 29.2 y[9,1] + z[1] + [ - 0.2 y[0,1] * c[1,3] - 0.2 y[1,1] * c[1,3]
   - 0.2 y[2,1] * c[1,3] - 0.2 y[3,1] * c[1,3] - 0.2 y[4,1] * c[1,3]
   - 0.2 y[5,1] * c[1,3] - 0.2 y[6,1] * c[1,3] - 0.2 y[7,1] * c[1,3]
   - 0.2 y[8,1] * c[1,3] - 0.2 y[9,1] * c[1,3] ] >= 0
 s.t.25[2]: 25.3 y[0,2] + 49.7 y[1,2] + 29.3 y[2,2] + 29.2 y[3,2]
   + 29.2 y[4,2] + 23.2 y[5,2] + 35.2 y[6,2] + 41.3 y[7,2] + 27.3 y[8,2]
   + 29.2 y[9,2] + z[2] + [ - 0.2 y[0,2] * c[2,3] - 0.2 y[1,2] * c[2,3]
   - 0.2 y[2,2] * c[2,3] - 0.2 y[3,2] * c[2,3] - 0.2 y[4,2] * c[2,3]
   - 0.2 y[5,2] * c[2,3] - 0.2 y[6,2] * c[2,3] - 0.2 y[7,2] * c[2,3]
   - 0.2 y[8,2] * c[2,3] - 0.2 y[9,2] * c[2,3] ] >= 0
 s.t.25[3]: 25.3 y[0,3] + 49.7 y[1,3] + 29.3 y[2,3] + 29.2 y[3,3]
   + 29.2 y[4,3] + 23.2 y[5,3] + 35.2 y[6,3] + 41.3 y[7,3] + 27.3 y[8,3]
   + 29.2 y[9,3] + z[3] + [ - 0.2 y[0,3] * c[3,3] - 0.2 y[1,3] * c[3,3]
   - 0.2 y[2,3] * c[3,3] - 0.2 y[3,3] * c[3,3] - 0.2 y[4,3] * c[3,3]
   - 0.2 y[5,3] * c[3,3] - 0.2 y[6,3] * c[3,3] - 0.2 y[7,3] * c[3,3]
   - 0.2 y[8,3] * c[3,3] - 0.2 y[9,3] * c[3,3] ] >= 0
 s.t.25[4]: 25.3 y[0,4] + 49.7 y[1,4] + 29.3 y[2,4] + 29.2 y[3,4]
   + 29.2 y[4,4] + 23.2 y[5,4] + 35.2 y[6,4] + 41.3 y[7,4] + 27.3 y[8,4]
   + 29.2 y[9,4] + z[4] + [ - 0.2 y[0,4] * c[4,3] - 0.2 y[1,4] * c[4,3]
   - 0.2 y[2,4] * c[4,3] - 0.2 y[3,4] * c[4,3] - 0.2 y[4,4] * c[4,3]
   - 0.2 y[5,4] * c[4,3] - 0.2 y[6,4] * c[4,3] - 0.2 y[7,4] * c[4,3]
   - 0.2 y[8,4] * c[4,3] - 0.2 y[9,4] * c[4,3] ] >= 0
 s.t.25[5]: 25.3 y[0,5] + 49.7 y[1,5] + 29.3 y[2,5] + 29.2 y[3,5]
   + 29.2 y[4,5] + 23.2 y[5,5] + 35.2 y[6,5] + 41.3 y[7,5] + 27.3 y[8,5]
   + 29.2 y[9,5] + z[5] + [ - 0.2 y[0,5] * c[5,3] - 0.2 y[1,5] * c[5,3]
   - 0.2 y[2,5] * c[5,3] - 0.2 y[3,5] * c[5,3] - 0.2 y[4,5] * c[5,3]
   - 0.2 y[5,5] * c[5,3] - 0.2 y[6,5] * c[5,3] - 0.2 y[7,5] * c[5,3]
   - 0.2 y[8,5] * c[5,3] - 0.2 y[9,5] * c[5,3] ] >= 0
 s.t.25[6]: 25.3 y[0,6] + 49.7 y[1,6] + 29.3 y[2,6] + 29.2 y[3,6]
   + 29.2 y[4,6] + 23.2 y[5,6] + 35.2 y[6,6] + 41.3 y[7,6] + 27.3 y[8,6]
   + 29.2 y[9,6] + z[6] + [ - 0.2 y[0,6] * c[6,3] - 0.2 y[1,6] * c[6,3]
   - 0.2 y[2,6] * c[6,3] - 0.2 y[3,6] * c[6,3] - 0.2 y[4,6] * c[6,3]
   - 0.2 y[5,6] * c[6,3] - 0.2 y[6,6] * c[6,3] - 0.2 y[7,6] * c[6,3]
   - 0.2 y[8,6] * c[6,3] - 0.2 y[9,6] * c[6,3] ] >= 0
 s.t.25[7]: 25.3 y[0,7] + 49.7 y[1,7] + 29.3 y[2,7] + 29.2 y[3,7]
   + 29.2 y[4,7] + 23.2 y[5,7] + 35.2 y[6,7] + 41.3 y[7,7] + 27.3 y[8,7]
   + 29.2 y[9,7] + z[7] + [ - 0.2 y[0,7] * c[7,3] - 0.2 y[1,7] * c[7,3]
   - 0.2 y[2,7] * c[7,3] - 0.2 y[3,7] * c[7,3] - 0.2 y[4,7] * c[7,3]
   - 0.2 y[5,7] * c[7,3] - 0.2 y[6,7] * c[7,3] - 0.2 y[7,7] * c[7,3]
   - 0.2 y[8,7] * c[7,3] - 0.2 y[9,7] * c[7,3] ] >= 0
 s.t.25[8]: 25.3 y[0,8] + 49.7 y[1,8] + 29.3 y[2,8] + 29.2 y[3,8]
   + 29.2 y[4,8] + 23.2 y[5,8] + 35.2 y[6,8] + 41.3 y[7,8] + 27.3 y[8,8]
   + 29.2 y[9,8] + z[8] + [ - 0.2 y[0,8] * c[8,3] - 0.2 y[1,8] * c[8,3]
   - 0.2 y[2,8] * c[8,3] - 0.2 y[3,8] * c[8,3] - 0.2 y[4,8] * c[8,3]
   - 0.2 y[5,8] * c[8,3] - 0.2 y[6,8] * c[8,3] - 0.2 y[7,8] * c[8,3]
   - 0.2 y[8,8] * c[8,3] - 0.2 y[9,8] * c[8,3] ] >= 0
 s.t.25[9]: 25.3 y[0,9] + 49.7 y[1,9] + 29.3 y[2,9] + 29.2 y[3,9]
   + 29.2 y[4,9] + 23.2 y[5,9] + 35.2 y[6,9] + 41.3 y[7,9] + 27.3 y[8,9]
   + 29.2 y[9,9] + z[9] + [ - 0.2 y[0,9] * c[9,3] - 0.2 y[1,9] * c[9,3]
   - 0.2 y[2,9] * c[9,3] - 0.2 y[3,9] * c[9,3] - 0.2 y[4,9] * c[9,3]
   - 0.2 y[5,9] * c[9,3] - 0.2 y[6,9] * c[9,3] - 0.2 y[7,9] * c[9,3]
   - 0.2 y[8,9] * c[9,3] - 0.2 y[9,9] * c[9,3] ] >= 0
Bounds
 Constant = 1
Binaries
 y[0,0] y[0,1] y[0,2] y[0,3] y[0,4] y[0,5] y[0,6] y[0,7] y[0,8] y[0,9]
 y[1,0] y[1,1] y[1,2] y[1,3] y[1,4] y[1,5] y[1,6] y[1,7] y[1,8] y[1,9]
 y[2,0] y[2,1] y[2,2] y[2,3] y[2,4] y[2,5] y[2,6] y[2,7] y[2,8] y[2,9]
 y[3,0] y[3,1] y[3,2] y[3,3] y[3,4] y[3,5] y[3,6] y[3,7] y[3,8] y[3,9]
 y[4,0] y[4,1] y[4,2] y[4,3] y[4,4] y[4,5] y[4,6] y[4,7] y[4,8] y[4,9]
 y[5,0] y[5,1] y[5,2] y[5,3] y[5,4] y[5,5] y[5,6] y[5,7] y[5,8] y[5,9]
 y[6,0] y[6,1] y[6,2] y[6,3] y[6,4] y[6,5] y[6,6] y[6,7] y[6,8] y[6,9]
 y[7,0] y[7,1] y[7,2] y[7,3] y[7,4] y[7,5] y[7,6] y[7,7] y[7,8] y[7,9]
 y[8,0] y[8,1] y[8,2] y[8,3] y[8,4] y[8,5] y[8,6] y[8,7] y[8,8] y[8,9]
 y[9,0] y[9,1] y[9,2] y[9,3] y[9,4] y[9,5] y[9,6] y[9,7] y[9,8] y[9,9]
End
